COOK = {C1, C2, C3, C4, C5, C6, C7, C8, C9, C10, C11, C12, C13, C14, C15};
DISH = {D1, D2, D3, D4, D5, D6, D7, D8, D9, D10};
no_tasks = 150;
steps = [1..15, 16..30, 31..45, 46..60, 61..75, 76..90, 91..105, 106..120, 121..135, 136..150];
time = array2d(1..150,COOK,[0, 8, 0, 0, 0, 3, 2, 0, 5, 0, 0, 0, 0, 0, 0, 2, 0, 0, 0, 0, 0, 0, 0, 7, 0, 0, 0, 0, 0, 0, 4, 7, 0, 0, 0, 0, 4, 0, 1, 4, 0, 0, 0, 0, 0, 1, 0, 0, 0, 0, 0, 0, 2, 0, 0, 0, 0, 0, 0, 0, 0, 0, 8, 0, 8, 0, 5, 0, 0, 0, 0, 0, 0, 0, 0, 3, 5, 8, 0, 0, 0, 0, 8, 0, 9, 0, 0, 0, 0, 0, 1, 0, 0, 0, 6, 2, 0, 0, 0, 0, 0, 0, 0, 0, 0, 9, 5, 0, 6, 7, 0, 0, 0, 1, 0, 0, 0, 0, 0, 0, 2, 0, 0, 0, 0, 0, 0, 0, 0, 6, 0, 0, 0, 0, 0, 0, 0, 0, 0, 6, 0, 9, 0, 0, 0, 0, 0, 0, 0, 0, 0, 0, 0, 8, 0, 0, 2, 0, 0, 0, 0, 0, 0, 0, 0, 8, 1, 7, 2, 8, 0, 0, 0, 0, 0, 0, 0, 0, 0, 0, 0, 0, 0, 5, 0, 0, 0, 9, 0, 2, 0, 0, 0, 0, 0, 0, 0, 7, 0, 0, 0, 5, 0, 3, 0, 0, 0, 0, 0, 0, 1, 0, 0, 0, 8, 0, 0, 0, 4, 0, 0, 0, 0, 0, 0, 3, 5, 8, 0, 0, 0, 0, 8, 0, 9, 0, 0, 0, 0, 0, 4, 7, 0, 0, 0, 0, 4, 0, 1, 4, 0, 0, 0, 0, 0, 1, 0, 0, 0, 6, 2, 0, 0, 0, 0, 0, 0, 0, 0, 0, 8, 1, 7, 2, 8, 0, 0, 0, 0, 0, 0, 0, 0, 0, 0, 0, 0, 0, 8, 0, 0, 2, 0, 0, 0, 0, 0, 0, 0, 0, 2, 0, 0, 0, 0, 0, 0, 0, 0, 6, 0, 0, 0, 0, 0, 0, 0, 0, 5, 0, 0, 0, 9, 0, 2, 0, 0, 0, 0, 0, 0, 0, 0, 0, 6, 0, 9, 0, 0, 0, 0, 0, 0, 0, 0, 0, 0, 7, 0, 0, 0, 5, 0, 3, 0, 0, 0, 0, 0, 0, 0, 0, 8, 0, 8, 0, 5, 0, 0, 0, 0, 0, 0, 0, 0, 1, 0, 0, 0, 8, 0, 0, 0, 4, 0, 0, 0, 0, 0, 0, 2, 0, 0, 0, 0, 0, 0, 0, 7, 0, 0, 0, 0, 0, 0, 1, 0, 0, 0, 0, 0, 0, 2, 0, 0, 0, 0, 0, 0, 0, 0, 8, 0, 0, 0, 3, 2, 0, 5, 0, 0, 0, 0, 0, 0, 9, 5, 0, 6, 7, 0, 0, 0, 1, 0, 0, 0, 0, 0, 0, 1, 0, 0, 0, 0, 0, 0, 2, 0, 0, 0, 0, 0, 0, 0, 0, 0, 0, 0, 6, 0, 9, 0, 0, 0, 0, 0, 0, 0, 0, 2, 0, 0, 0, 0, 0, 0, 0, 0, 6, 0, 0, 0, 0, 0, 0, 0, 0, 8, 0, 0, 2, 0, 0, 0, 0, 0, 0, 0, 0, 8, 1, 7, 2, 8, 0, 0, 0, 0, 0, 0, 0, 0, 0, 0, 1, 0, 0, 0, 8, 0, 0, 0, 4, 0, 0, 0, 0, 0, 0, 2, 0, 0, 0, 0, 0, 0, 0, 7, 0, 0, 0, 0, 0, 0, 0, 0, 7, 0, 0, 0, 5, 0, 3, 0, 0, 0, 0, 0, 0, 4, 7, 0, 0, 0, 0, 4, 0, 1, 4, 0, 0, 0, 0, 0, 0, 8, 0, 0, 0, 3, 2, 0, 5, 0, 0, 0, 0, 0, 0, 3, 5, 8, 0, 0, 0, 0, 8, 0, 9, 0, 0, 0, 0, 0, 0, 0, 0, 5, 0, 0, 0, 9, 0, 2, 0, 0, 0, 0, 0, 9, 5, 0, 6, 7, 0, 0, 0, 1, 0, 0, 0, 0, 0, 0, 1, 0, 0, 0, 6, 2, 0, 0, 0, 0, 0, 0, 0, 0, 0, 0, 0, 8, 0, 8, 0, 5, 0, 0, 0, 0, 0, 0, 0, 0, 1, 0, 0, 0, 6, 2, 0, 0, 0, 0, 0, 0, 0, 0, 0, 9, 5, 0, 6, 7, 0, 0, 0, 1, 0, 0, 0, 0, 0, 0, 3, 5, 8, 0, 0, 0, 0, 8, 0, 9, 0, 0, 0, 0, 0, 8, 1, 7, 2, 8, 0, 0, 0, 0, 0, 0, 0, 0, 0, 0, 0, 0, 0, 8, 0, 0, 2, 0, 0, 0, 0, 0, 0, 0, 0, 2, 0, 0, 0, 0, 0, 0, 0, 0, 6, 0, 0, 0, 0, 0, 0, 0, 8, 0, 8, 0, 5, 0, 0, 0, 0, 0, 0, 0, 0, 2, 0, 0, 0, 0, 0, 0, 0, 7, 0, 0, 0, 0, 0, 0, 0, 0, 7, 0, 0, 0, 5, 0, 3, 0, 0, 0, 0, 0, 0, 1, 0, 0, 0, 8, 0, 0, 0, 4, 0, 0, 0, 0, 0, 0, 0, 8, 0, 0, 0, 3, 2, 0, 5, 0, 0, 0, 0, 0, 0, 1, 0, 0, 0, 0, 0, 0, 2, 0, 0, 0, 0, 0, 0, 0, 4, 7, 0, 0, 0, 0, 4, 0, 1, 4, 0, 0, 0, 0, 0, 0, 0, 0, 0, 6, 0, 9, 0, 0, 0, 0, 0, 0, 0, 0, 0, 0, 0, 5, 0, 0, 0, 9, 0, 2, 0, 0, 0, 0, 0, 0, 0, 0, 5, 0, 0, 0, 9, 0, 2, 0, 0, 0, 0, 0, 1, 0, 0, 0, 0, 0, 0, 2, 0, 0, 0, 0, 0, 0, 0, 1, 0, 0, 0, 8, 0, 0, 0, 4, 0, 0, 0, 0, 0, 0, 2, 0, 0, 0, 0, 0, 0, 0, 7, 0, 0, 0, 0, 0, 0, 0, 0, 8, 0, 8, 0, 5, 0, 0, 0, 0, 0, 0, 0, 0, 8, 1, 7, 2, 8, 0, 0, 0, 0, 0, 0, 0, 0, 0, 0, 1, 0, 0, 0, 6, 2, 0, 0, 0, 0, 0, 0, 0, 0, 0, 0, 0, 7, 0, 0, 0, 5, 0, 3, 0, 0, 0, 0, 0, 0, 0, 8, 0, 0, 0, 3, 2, 0, 5, 0, 0, 0, 0, 0, 0, 2, 0, 0, 0, 0, 0, 0, 0, 0, 6, 0, 0, 0, 0, 0, 4, 7, 0, 0, 0, 0, 4, 0, 1, 4, 0, 0, 0, 0, 0, 0, 0, 0, 0, 6, 0, 9, 0, 0, 0, 0, 0, 0, 0, 0, 9, 5, 0, 6, 7, 0, 0, 0, 1, 0, 0, 0, 0, 0, 0, 3, 5, 8, 0, 0, 0, 0, 8, 0, 9, 0, 0, 0, 0, 0, 0, 0, 0, 8, 0, 0, 2, 0, 0, 0, 0, 0, 0, 0, 0, 0, 0, 8, 0, 8, 0, 5, 0, 0, 0, 0, 0, 0, 0, 0, 3, 5, 8, 0, 0, 0, 0, 8, 0, 9, 0, 0, 0, 0, 0, 0, 0, 0, 0, 6, 0, 9, 0, 0, 0, 0, 0, 0, 0, 0, 1, 0, 0, 0, 6, 2, 0, 0, 0, 0, 0, 0, 0, 0, 0, 9, 5, 0, 6, 7, 0, 0, 0, 1, 0, 0, 0, 0, 0, 0, 0, 0, 0, 8, 0, 0, 2, 0, 0, 0, 0, 0, 0, 0, 0, 2, 0, 0, 0, 0, 0, 0, 0, 7, 0, 0, 0, 0, 0, 0, 8, 1, 7, 2, 8, 0, 0, 0, 0, 0, 0, 0, 0, 0, 0, 4, 7, 0, 0, 0, 0, 4, 0, 1, 4, 0, 0, 0, 0, 0, 0, 8, 0, 0, 0, 3, 2, 0, 5, 0, 0, 0, 0, 0, 0, 1, 0, 0, 0, 0, 0, 0, 2, 0, 0, 0, 0, 0, 0, 0, 0, 0, 7, 0, 0, 0, 5, 0, 3, 0, 0, 0, 0, 0, 0, 2, 0, 0, 0, 0, 0, 0, 0, 0, 6, 0, 0, 0, 0, 0, 1, 0, 0, 0, 8, 0, 0, 0, 4, 0, 0, 0, 0, 0, 0, 0, 0, 0, 5, 0, 0, 0, 9, 0, 2, 0, 0, 0, 0, 0, 1, 0, 0, 0, 6, 2, 0, 0, 0, 0, 0, 0, 0, 0, 0, 0, 0, 0, 5, 0, 0, 0, 9, 0, 2, 0, 0, 0, 0, 0, 0, 0, 8, 0, 8, 0, 5, 0, 0, 0, 0, 0, 0, 0, 0, 3, 5, 8, 0, 0, 0, 0, 8, 0, 9, 0, 0, 0, 0, 0, 1, 0, 0, 0, 0, 0, 0, 2, 0, 0, 0, 0, 0, 0, 0, 2, 0, 0, 0, 0, 0, 0, 0, 7, 0, 0, 0, 0, 0, 0, 8, 1, 7, 2, 8, 0, 0, 0, 0, 0, 0, 0, 0, 0, 0, 0, 0, 7, 0, 0, 0, 5, 0, 3, 0, 0, 0, 0, 0, 0, 4, 7, 0, 0, 0, 0, 4, 0, 1, 4, 0, 0, 0, 0, 0, 1, 0, 0, 0, 8, 0, 0, 0, 4, 0, 0, 0, 0, 0, 0, 2, 0, 0, 0, 0, 0, 0, 0, 0, 6, 0, 0, 0, 0, 0, 0, 8, 0, 0, 0, 3, 2, 0, 5, 0, 0, 0, 0, 0, 0, 0, 0, 0, 0, 6, 0, 9, 0, 0, 0, 0, 0, 0, 0, 0, 0, 0, 0, 8, 0, 0, 2, 0, 0, 0, 0, 0, 0, 0, 0, 9, 5, 0, 6, 7, 0, 0, 0, 1, 0, 0, 0, 0, 0, 0, 4, 7, 0, 0, 0, 0, 4, 0, 1, 4, 0, 0, 0, 0, 0, 0, 0, 7, 0, 0, 0, 5, 0, 3, 0, 0, 0, 0, 0, 0, 0, 0, 8, 0, 8, 0, 5, 0, 0, 0, 0, 0, 0, 0, 0, 1, 0, 0, 0, 0, 0, 0, 2, 0, 0, 0, 0, 0, 0, 0, 1, 0, 0, 0, 6, 2, 0, 0, 0, 0, 0, 0, 0, 0, 0, 9, 5, 0, 6, 7, 0, 0, 0, 1, 0, 0, 0, 0, 0, 0, 0, 0, 0, 5, 0, 0, 0, 9, 0, 2, 0, 0, 0, 0, 0, 1, 0, 0, 0, 8, 0, 0, 0, 4, 0, 0, 0, 0, 0, 0, 2, 0, 0, 0, 0, 0, 0, 0, 7, 0, 0, 0, 0, 0, 0, 0, 8, 0, 0, 0, 3, 2, 0, 5, 0, 0, 0, 0, 0, 0, 3, 5, 8, 0, 0, 0, 0, 8, 0, 9, 0, 0, 0, 0, 0, 0, 0, 0, 8, 0, 0, 2, 0, 0, 0, 0, 0, 0, 0, 0, 2, 0, 0, 0, 0, 0, 0, 0, 0, 6, 0, 0, 0, 0, 0, 8, 1, 7, 2, 8, 0, 0, 0, 0, 0, 0, 0, 0, 0, 0, 0, 0, 0, 0, 6, 0, 9, 0, 0, 0, 0, 0, 0, 0, 0, 0, 8, 0, 0, 0, 3, 2, 0, 5, 0, 0, 0, 0, 0, 0, 1, 0, 0, 0, 8, 0, 0, 0, 4, 0, 0, 0, 0, 0, 0, 0, 0, 8, 0, 8, 0, 5, 0, 0, 0, 0, 0, 0, 0, 0, 4, 7, 0, 0, 0, 0, 4, 0, 1, 4, 0, 0, 0, 0, 0, 8, 1, 7, 2, 8, 0, 0, 0, 0, 0, 0, 0, 0, 0, 0, 0, 0, 0, 8, 0, 0, 2, 0, 0, 0, 0, 0, 0, 0, 0, 2, 0, 0, 0, 0, 0, 0, 0, 7, 0, 0, 0, 0, 0, 0, 0, 0, 0, 5, 0, 0, 0, 9, 0, 2, 0, 0, 0, 0, 0, 3, 5, 8, 0, 0, 0, 0, 8, 0, 9, 0, 0, 0, 0, 0, 2, 0, 0, 0, 0, 0, 0, 0, 0, 6, 0, 0, 0, 0, 0, 9, 5, 0, 6, 7, 0, 0, 0, 1, 0, 0, 0, 0, 0, 0, 0, 0, 7, 0, 0, 0, 5, 0, 3, 0, 0, 0, 0, 0, 0, 0, 0, 0, 0, 6, 0, 9, 0, 0, 0, 0, 0, 0, 0, 0, 1, 0, 0, 0, 0, 0, 0, 2, 0, 0, 0, 0, 0, 0, 0, 1, 0, 0, 0, 6, 2, 0, 0, 0, 0, 0, 0, 0, 0, 0, 1, 0, 0, 0, 0, 0, 0, 2, 0, 0, 0, 0, 0, 0, 0, 0, 8, 0, 0, 0, 3, 2, 0, 5, 0, 0, 0, 0, 0, 0, 0, 0, 0, 5, 0, 0, 0, 9, 0, 2, 0, 0, 0, 0, 0, 0, 0, 8, 0, 8, 0, 5, 0, 0, 0, 0, 0, 0, 0, 0, 0, 0, 7, 0, 0, 0, 5, 0, 3, 0, 0, 0, 0, 0, 0, 2, 0, 0, 0, 0, 0, 0, 0, 0, 6, 0, 0, 0, 0, 0, 0, 0, 0, 0, 6, 0, 9, 0, 0, 0, 0, 0, 0, 0, 0, 1, 0, 0, 0, 8, 0, 0, 0, 4, 0, 0, 0, 0, 0, 0, 4, 7, 0, 0, 0, 0, 4, 0, 1, 4, 0, 0, 0, 0, 0, 9, 5, 0, 6, 7, 0, 0, 0, 1, 0, 0, 0, 0, 0, 0, 3, 5, 8, 0, 0, 0, 0, 8, 0, 9, 0, 0, 0, 0, 0, 1, 0, 0, 0, 6, 2, 0, 0, 0, 0, 0, 0, 0, 0, 0, 8, 1, 7, 2, 8, 0, 0, 0, 0, 0, 0, 0, 0, 0, 0, 0, 0, 0, 8, 0, 0, 2, 0, 0, 0, 0, 0, 0, 0, 0, 2, 0, 0, 0, 0, 0, 0, 0, 7, 0, 0, 0, 0, 0, 0]);
